NAME: cluster_2
TYPE: TSP
DIMENSION: 12
EDGE_WEIGHT_TYPE: EUC_2D
NODE_COORD_SECTION
1 12000.00 16000.00
2 21855.81 18946.98
3 15401.58 13787.55
4 22195.34 16565.22
5 18263.83 16506.05
6 18410.87 18289.65
7 17518.77 14086.81
8 22694.15 15252.86
9 18708.99 14572.94
10 22037.70 17173.40
11 21170.91 14244.27
12 23655.89 15158.87
EOF
